\ Model _copy
\ LP format - for model browsing. Use MPS format to capture full model detail.
Minimize
 
Subject To
 R0: - fv2A1_N1_N8 + fv2A3_N1_N8 - fv2A4_N1_N8 + fv2A12_N1_N8
   - fv2A15_N1_N8 - fv2A1_N2_N8 + fv2A3_N2_N8 - fv2A4_N2_N8 + fv2A12_N2_N8
   - fv2A15_N2_N8 - fv2A1_N3_N8 + fv2A3_N3_N8 - fv2A4_N3_N8 + fv2A12_N3_N8
   - fv2A15_N3_N8 - fv2A1_N4_N8 + fv2A3_N4_N8 - fv2A4_N4_N8 + fv2A12_N4_N8
   - fv2A15_N4_N8 - fv2A1_N5_N8 + fv2A3_N5_N8 - fv2A4_N5_N8 + fv2A12_N5_N8
   - fv2A15_N5_N8 - fv2A1_N6_N8 + fv2A3_N6_N8 - fv2A4_N6_N8 + fv2A12_N6_N8
   - fv2A15_N6_N8 - fv2A1_N7_N8 + fv2A3_N7_N8 - fv2A4_N7_N8 + fv2A12_N7_N8
   - fv2A15_N7_N8 - fv2A1_J1_N8 + fv2A3_J1_N8 - fv2A4_J1_N8 + fv2A12_J1_N8
   - fv2A15_J1_N8 - fv2A1_J2_N8 + fv2A3_J2_N8 - fv2A4_J2_N8 + fv2A12_J2_N8
   - fv2A15_J2_N8 - fv2A1_J3_N8 + fv2A3_J3_N8 - fv2A4_J3_N8 + fv2A12_J3_N8
   - fv2A15_J3_N8 = 0
 R1: fv2A1_N1_N8 - fv2A2_N1_N8 - fv2A10_N1_N8 + fv2A11_N1_N8 - fv2A12_N1_N8
   + fv2A14_N1_N8 - fv2A16_N1_N8 + fv2A1_N2_N8 - fv2A2_N2_N8 - fv2A10_N2_N8
   + fv2A11_N2_N8 - fv2A12_N2_N8 + fv2A14_N2_N8 - fv2A16_N2_N8
   + fv2A1_N3_N8 - fv2A2_N3_N8 - fv2A10_N3_N8 + fv2A11_N3_N8 - fv2A12_N3_N8
   + fv2A14_N3_N8 - fv2A16_N3_N8 + fv2A1_N4_N8 - fv2A2_N4_N8 - fv2A10_N4_N8
   + fv2A11_N4_N8 - fv2A12_N4_N8 + fv2A14_N4_N8 - fv2A16_N4_N8
   + fv2A1_N5_N8 - fv2A2_N5_N8 - fv2A10_N5_N8 + fv2A11_N5_N8 - fv2A12_N5_N8
   + fv2A14_N5_N8 - fv2A16_N5_N8 + fv2A1_N6_N8 - fv2A2_N6_N8 - fv2A10_N6_N8
   + fv2A11_N6_N8 - fv2A12_N6_N8 + fv2A14_N6_N8 - fv2A16_N6_N8
   + fv2A1_N7_N8 - fv2A2_N7_N8 - fv2A10_N7_N8 + fv2A11_N7_N8 - fv2A12_N7_N8
   + fv2A14_N7_N8 - fv2A16_N7_N8 + fv2A1_J1_N8 - fv2A2_J1_N8 - fv2A10_J1_N8
   + fv2A11_J1_N8 - fv2A12_J1_N8 + fv2A14_J1_N8 - fv2A16_J1_N8
   + fv2A1_J2_N8 - fv2A2_J2_N8 - fv2A10_J2_N8 + fv2A11_J2_N8 - fv2A12_J2_N8
   + fv2A14_J2_N8 - fv2A16_J2_N8 + fv2A1_J3_N8 - fv2A2_J3_N8 - fv2A10_J3_N8
   + fv2A11_J3_N8 - fv2A12_J3_N8 + fv2A14_J3_N8 - fv2A16_J3_N8 = 0
 R2: fv2A2_N1_N8 - fv2A3_N1_N8 + fv2A4_N1_N8 + fv2A5_N1_N8 - fv2A11_N1_N8
   - fv2A17_N1_N8 - fv2A19_N1_N8 + fv2A2_N2_N8 - fv2A3_N2_N8 + fv2A4_N2_N8
   + fv2A5_N2_N8 - fv2A11_N2_N8 - fv2A17_N2_N8 - fv2A19_N2_N8 + fv2A2_N3_N8
   - fv2A3_N3_N8 + fv2A4_N3_N8 + fv2A5_N3_N8 - fv2A11_N3_N8 - fv2A17_N3_N8
   - fv2A19_N3_N8 + fv2A2_N4_N8 - fv2A3_N4_N8 + fv2A4_N4_N8 + fv2A5_N4_N8
   - fv2A11_N4_N8 - fv2A17_N4_N8 - fv2A19_N4_N8 + fv2A2_N5_N8 - fv2A3_N5_N8
   + fv2A4_N5_N8 + fv2A5_N5_N8 - fv2A11_N5_N8 - fv2A17_N5_N8 - fv2A19_N5_N8
   + fv2A2_N6_N8 - fv2A3_N6_N8 + fv2A4_N6_N8 + fv2A5_N6_N8 - fv2A11_N6_N8
   - fv2A17_N6_N8 - fv2A19_N6_N8 + fv2A2_N7_N8 - fv2A3_N7_N8 + fv2A4_N7_N8
   + fv2A5_N7_N8 - fv2A11_N7_N8 - fv2A17_N7_N8 - fv2A19_N7_N8 + fv2A2_J1_N8
   - fv2A3_J1_N8 + fv2A4_J1_N8 + fv2A5_J1_N8 - fv2A11_J1_N8 - fv2A17_J1_N8
   - fv2A19_J1_N8 + fv2A2_J2_N8 - fv2A3_J2_N8 + fv2A4_J2_N8 + fv2A5_J2_N8
   - fv2A11_J2_N8 - fv2A17_J2_N8 - fv2A19_J2_N8 + fv2A2_J3_N8 - fv2A3_J3_N8
   + fv2A4_J3_N8 + fv2A5_J3_N8 - fv2A11_J3_N8 - fv2A17_J3_N8 - fv2A19_J3_N8
   = 0
 R3: - fv2A5_N1_N8 + fv2A6_N1_N8 + fv2A8_N1_N8 - fv2A20_N1_N8
   - fv2A24_N1_N8 - fv2A5_N2_N8 + fv2A6_N2_N8 + fv2A8_N2_N8 - fv2A20_N2_N8
   - fv2A24_N2_N8 - fv2A5_N3_N8 + fv2A6_N3_N8 + fv2A8_N3_N8 - fv2A20_N3_N8
   - fv2A24_N3_N8 - fv2A5_N4_N8 + fv2A6_N4_N8 + fv2A8_N4_N8 - fv2A20_N4_N8
   - fv2A24_N4_N8 - fv2A5_N5_N8 + fv2A6_N5_N8 + fv2A8_N5_N8 - fv2A20_N5_N8
   - fv2A24_N5_N8 - fv2A5_N6_N8 + fv2A6_N6_N8 + fv2A8_N6_N8 - fv2A20_N6_N8
   - fv2A24_N6_N8 - fv2A5_N7_N8 + fv2A6_N7_N8 + fv2A8_N7_N8 - fv2A20_N7_N8
   - fv2A24_N7_N8 - fv2A5_J1_N8 + fv2A6_J1_N8 + fv2A8_J1_N8 - fv2A20_J1_N8
   - fv2A24_J1_N8 - fv2A5_J2_N8 + fv2A6_J2_N8 + fv2A8_J2_N8 - fv2A20_J2_N8
   - fv2A24_J2_N8 - fv2A5_J3_N8 + fv2A6_J3_N8 + fv2A8_J3_N8 - fv2A20_J3_N8
   - fv2A24_J3_N8 = 0
 R4: - fv2A8_N1_N8 - fv2A9_N1_N8 + fv2A10_N1_N8 + fv2A13_N1_N8
   - fv2A14_N1_N8 - fv2A21_N1_N8 - fv2A23_N1_N8 - fv2A8_N2_N8 - fv2A9_N2_N8
   + fv2A10_N2_N8 + fv2A13_N2_N8 - fv2A14_N2_N8 - fv2A21_N2_N8
   - fv2A23_N2_N8 - fv2A8_N3_N8 - fv2A9_N3_N8 + fv2A10_N3_N8 + fv2A13_N3_N8
   - fv2A14_N3_N8 - fv2A21_N3_N8 - fv2A23_N3_N8 - fv2A8_N4_N8 - fv2A9_N4_N8
   + fv2A10_N4_N8 + fv2A13_N4_N8 - fv2A14_N4_N8 - fv2A21_N4_N8
   - fv2A23_N4_N8 - fv2A8_N5_N8 - fv2A9_N5_N8 + fv2A10_N5_N8 + fv2A13_N5_N8
   - fv2A14_N5_N8 - fv2A21_N5_N8 - fv2A23_N5_N8 - fv2A8_N6_N8 - fv2A9_N6_N8
   + fv2A10_N6_N8 + fv2A13_N6_N8 - fv2A14_N6_N8 - fv2A21_N6_N8
   - fv2A23_N6_N8 - fv2A8_N7_N8 - fv2A9_N7_N8 + fv2A10_N7_N8 + fv2A13_N7_N8
   - fv2A14_N7_N8 - fv2A21_N7_N8 - fv2A23_N7_N8 - fv2A8_J1_N8 - fv2A9_J1_N8
   + fv2A10_J1_N8 + fv2A13_J1_N8 - fv2A14_J1_N8 - fv2A21_J1_N8
   - fv2A23_J1_N8 - fv2A8_J2_N8 - fv2A9_J2_N8 + fv2A10_J2_N8 + fv2A13_J2_N8
   - fv2A14_J2_N8 - fv2A21_J2_N8 - fv2A23_J2_N8 - fv2A8_J3_N8 - fv2A9_J3_N8
   + fv2A10_J3_N8 + fv2A13_J3_N8 - fv2A14_J3_N8 - fv2A21_J3_N8
   - fv2A23_J3_N8 = 0
 R5: - fv2A27_N1_N8 - fv2A28_N1_N8 - fv2A29_N1_N8 - fv2A30_N1_N8
   - fv2A27_N2_N8 - fv2A28_N2_N8 - fv2A29_N2_N8 - fv2A30_N2_N8
   - fv2A27_N3_N8 - fv2A28_N3_N8 - fv2A29_N3_N8 - fv2A30_N3_N8
   - fv2A27_N4_N8 - fv2A28_N4_N8 - fv2A29_N4_N8 - fv2A30_N4_N8
   - fv2A27_N5_N8 - fv2A28_N5_N8 - fv2A29_N5_N8 - fv2A30_N5_N8
   - fv2A27_N6_N8 - fv2A28_N6_N8 - fv2A29_N6_N8 - fv2A30_N6_N8
   - fv2A27_N7_N8 - fv2A28_N7_N8 - fv2A29_N7_N8 - fv2A30_N7_N8
   - fv2A27_J1_N8 - fv2A28_J1_N8 - fv2A29_J1_N8 - fv2A30_J1_N8
   - fv2A27_J2_N8 - fv2A28_J2_N8 - fv2A29_J2_N8 - fv2A30_J2_N8
   - fv2A27_J3_N8 - fv2A28_J3_N8 - fv2A29_J3_N8 - fv2A30_J3_N8 = 0
 R6: fv2A15_N1_N8 + fv2A16_N1_N8 + fv2A17_N1_N8 + fv2A15_N2_N8
   + fv2A16_N2_N8 + fv2A17_N2_N8 + fv2A15_N3_N8 + fv2A16_N3_N8
   + fv2A17_N3_N8 + fv2A15_N4_N8 + fv2A16_N4_N8 + fv2A17_N4_N8
   + fv2A15_N5_N8 + fv2A16_N5_N8 + fv2A17_N5_N8 + fv2A15_N6_N8
   + fv2A16_N6_N8 + fv2A17_N6_N8 + fv2A15_N7_N8 + fv2A16_N7_N8
   + fv2A17_N7_N8 + fv2A15_J1_N8 + fv2A16_J1_N8 + fv2A17_J1_N8
   + fv2A15_J2_N8 + fv2A16_J2_N8 + fv2A17_J2_N8 + fv2A15_J3_N8
   + fv2A16_J3_N8 + fv2A17_J3_N8 = 3
 R8: fv2A23_N1_N8 + fv2A24_N1_N8 + fv2A25_N1_N8 + fv2A26_N1_N8
   + fv2A23_N2_N8 + fv2A24_N2_N8 + fv2A25_N2_N8 + fv2A26_N2_N8
   + fv2A23_N3_N8 + fv2A24_N3_N8 + fv2A25_N3_N8 + fv2A26_N3_N8
   + fv2A23_N4_N8 + fv2A24_N4_N8 + fv2A25_N4_N8 + fv2A26_N4_N8
   + fv2A23_N5_N8 + fv2A24_N5_N8 + fv2A25_N5_N8 + fv2A26_N5_N8
   + fv2A23_N6_N8 + fv2A24_N6_N8 + fv2A25_N6_N8 + fv2A26_N6_N8
   + fv2A23_N7_N8 + fv2A24_N7_N8 + fv2A25_N7_N8 + fv2A26_N7_N8
   + fv2A23_J1_N8 + fv2A24_J1_N8 + fv2A25_J1_N8 + fv2A26_J1_N8
   + fv2A23_J2_N8 + fv2A24_J2_N8 + fv2A25_J2_N8 + fv2A26_J2_N8
   + fv2A23_J3_N8 + fv2A24_J3_N8 + fv2A25_J3_N8 + fv2A26_J3_N8 = 5
 R9: fv2A1_N1_N8 + fv2A2_N1_N8 + fv2A3_N1_N8 + fv2A4_N1_N8 + fv2A5_N1_N8
   + fv2A6_N1_N8 + fv2A7_N1_N8 + fv2A8_N1_N8 + fv2A9_N1_N8 + fv2A10_N1_N8
   + fv2A11_N1_N8 + fv2A12_N1_N8 + fv2A13_N1_N8 + fv2A14_N1_N8
   + fv2A15_N1_N8 + fv2A16_N1_N8 + fv2A17_N1_N8 + fv2A19_N1_N8
   + fv2A20_N1_N8 + fv2A21_N1_N8 + fv2A23_N1_N8 + fv2A24_N1_N8
   + fv2A25_N1_N8 + fv2A26_N1_N8 + fv2A27_N1_N8 + fv2A28_N1_N8
   + fv2A29_N1_N8 + fv2A30_N1_N8 + fv2A1_N2_N8 + fv2A2_N2_N8 + fv2A3_N2_N8
   + fv2A4_N2_N8 + fv2A5_N2_N8 + fv2A6_N2_N8 + fv2A7_N2_N8 + fv2A8_N2_N8
   + fv2A9_N2_N8 + fv2A10_N2_N8 + fv2A11_N2_N8 + fv2A12_N2_N8
   + fv2A13_N2_N8 + fv2A14_N2_N8 + fv2A15_N2_N8 + fv2A16_N2_N8
   + fv2A17_N2_N8 + fv2A19_N2_N8 + fv2A20_N2_N8 + fv2A21_N2_N8
   + fv2A23_N2_N8 + fv2A24_N2_N8 + fv2A25_N2_N8 + fv2A26_N2_N8
   + fv2A27_N2_N8 + fv2A28_N2_N8 + fv2A29_N2_N8 + fv2A30_N2_N8
   + fv2A1_N3_N8 + fv2A2_N3_N8 + fv2A3_N3_N8 + fv2A4_N3_N8 + fv2A5_N3_N8
   + fv2A6_N3_N8 + fv2A7_N3_N8 + fv2A8_N3_N8 + fv2A9_N3_N8 + fv2A10_N3_N8
   + fv2A11_N3_N8 + fv2A12_N3_N8 + fv2A13_N3_N8 + fv2A14_N3_N8
   + fv2A15_N3_N8 + fv2A16_N3_N8 + fv2A17_N3_N8 + fv2A19_N3_N8
   + fv2A20_N3_N8 + fv2A21_N3_N8 + fv2A23_N3_N8 + fv2A24_N3_N8
   + fv2A25_N3_N8 + fv2A26_N3_N8 + fv2A27_N3_N8 + fv2A28_N3_N8
   + fv2A29_N3_N8 + fv2A30_N3_N8 + fv2A1_N4_N8 + fv2A2_N4_N8 + fv2A3_N4_N8
   + fv2A4_N4_N8 + fv2A5_N4_N8 + fv2A6_N4_N8 + fv2A7_N4_N8 + fv2A8_N4_N8
   + fv2A9_N4_N8 + fv2A10_N4_N8 + fv2A11_N4_N8 + fv2A12_N4_N8
   + fv2A13_N4_N8 + fv2A14_N4_N8 + fv2A15_N4_N8 + fv2A16_N4_N8
   + fv2A17_N4_N8 + fv2A19_N4_N8 + fv2A20_N4_N8 + fv2A21_N4_N8
   + fv2A23_N4_N8 + fv2A24_N4_N8 + fv2A25_N4_N8 + fv2A26_N4_N8
   + fv2A27_N4_N8 + fv2A28_N4_N8 + fv2A29_N4_N8 + fv2A30_N4_N8
   + fv2A1_N5_N8 + fv2A2_N5_N8 + fv2A3_N5_N8 + fv2A4_N5_N8 + fv2A5_N5_N8
   + fv2A6_N5_N8 + fv2A7_N5_N8 + fv2A8_N5_N8 + fv2A9_N5_N8 + fv2A10_N5_N8
   + fv2A11_N5_N8 + fv2A12_N5_N8 + fv2A13_N5_N8 + fv2A14_N5_N8
   + fv2A15_N5_N8 + fv2A16_N5_N8 + fv2A17_N5_N8 + fv2A19_N5_N8
   + fv2A20_N5_N8 + fv2A21_N5_N8 + fv2A23_N5_N8 + fv2A24_N5_N8
   + fv2A25_N5_N8 + fv2A26_N5_N8 + fv2A27_N5_N8 + fv2A28_N5_N8
   + fv2A29_N5_N8 + fv2A30_N5_N8 + fv2A1_N6_N8 + fv2A2_N6_N8 + fv2A3_N6_N8
   + fv2A4_N6_N8 + fv2A5_N6_N8 + fv2A6_N6_N8 + fv2A7_N6_N8 + fv2A8_N6_N8
   + fv2A9_N6_N8 + fv2A10_N6_N8 + fv2A11_N6_N8 + fv2A12_N6_N8
   + fv2A13_N6_N8 + fv2A14_N6_N8 + fv2A15_N6_N8 + fv2A16_N6_N8
   + fv2A17_N6_N8 + fv2A19_N6_N8 + fv2A20_N6_N8 + fv2A21_N6_N8
   + fv2A23_N6_N8 + fv2A24_N6_N8 + fv2A25_N6_N8 + fv2A26_N6_N8
   + fv2A27_N6_N8 + fv2A28_N6_N8 + fv2A29_N6_N8 + fv2A30_N6_N8
   + fv2A1_N7_N8 + fv2A2_N7_N8 + fv2A3_N7_N8 + fv2A4_N7_N8 + fv2A5_N7_N8
   + fv2A6_N7_N8 + fv2A7_N7_N8 + fv2A8_N7_N8 + fv2A9_N7_N8 + fv2A10_N7_N8
   + fv2A11_N7_N8 + fv2A12_N7_N8 + fv2A13_N7_N8 + fv2A14_N7_N8
   + fv2A15_N7_N8 + fv2A16_N7_N8 + fv2A17_N7_N8 + fv2A19_N7_N8
   + fv2A20_N7_N8 + fv2A21_N7_N8 + fv2A23_N7_N8 + fv2A24_N7_N8
   + fv2A25_N7_N8 + fv2A26_N7_N8 + fv2A27_N7_N8 + fv2A28_N7_N8
   + fv2A29_N7_N8 + fv2A30_N7_N8 + fv2A1_J1_N8 + fv2A2_J1_N8 + fv2A3_J1_N8
   + fv2A4_J1_N8 + fv2A5_J1_N8 + fv2A6_J1_N8 + fv2A7_J1_N8 + fv2A8_J1_N8
   + fv2A9_J1_N8 + fv2A10_J1_N8 + fv2A11_J1_N8 + fv2A12_J1_N8
   + fv2A13_J1_N8 + fv2A14_J1_N8 + fv2A15_J1_N8 + fv2A16_J1_N8
   + fv2A17_J1_N8 + fv2A19_J1_N8 + fv2A20_J1_N8 + fv2A21_J1_N8
   + fv2A23_J1_N8 + fv2A24_J1_N8 + fv2A25_J1_N8 + fv2A26_J1_N8
   + fv2A27_J1_N8 + fv2A28_J1_N8 + fv2A29_J1_N8 + fv2A30_J1_N8
   + fv2A1_J2_N8 + fv2A2_J2_N8 + fv2A3_J2_N8 + fv2A4_J2_N8 + fv2A5_J2_N8
   + fv2A6_J2_N8 + fv2A7_J2_N8 + fv2A8_J2_N8 + fv2A9_J2_N8 + fv2A10_J2_N8
   + fv2A11_J2_N8 + fv2A12_J2_N8 + fv2A13_J2_N8 + fv2A14_J2_N8
   + fv2A15_J2_N8 + fv2A16_J2_N8 + fv2A17_J2_N8 + fv2A19_J2_N8
   + fv2A20_J2_N8 + fv2A21_J2_N8 + fv2A23_J2_N8 + fv2A24_J2_N8
   + fv2A25_J2_N8 + fv2A26_J2_N8 + fv2A27_J2_N8 + fv2A28_J2_N8
   + fv2A29_J2_N8 + fv2A30_J2_N8 + fv2A1_J3_N8 + fv2A2_J3_N8 + fv2A3_J3_N8
   + fv2A4_J3_N8 + fv2A5_J3_N8 + fv2A6_J3_N8 + fv2A7_J3_N8 + fv2A8_J3_N8
   + fv2A9_J3_N8 + fv2A10_J3_N8 + fv2A11_J3_N8 + fv2A12_J3_N8
   + fv2A13_J3_N8 + fv2A14_J3_N8 + fv2A15_J3_N8 + fv2A16_J3_N8
   + fv2A17_J3_N8 + fv2A19_J3_N8 + fv2A20_J3_N8 + fv2A21_J3_N8
   + fv2A23_J3_N8 + fv2A24_J3_N8 + fv2A25_J3_N8 + fv2A26_J3_N8
   + fv2A27_J3_N8 + fv2A28_J3_N8 + fv2A29_J3_N8 + fv2A30_J3_N8 = 13
Bounds
 fv2A3_N1_N8 free
 fv2A5_N1_N8 free
 fv2A6_N1_N8 free
 fv2A12_N1_N8 free
 fv2A13_N1_N8 free
 fv2A14_N1_N8 free
 fv2A16_N1_N8 free
 fv2A17_N1_N8 free
 fv2A25_N1_N8 free
 fv2A26_N1_N8 free
 fv2A27_N1_N8 free
 fv2A28_N1_N8 free
 fv2A29_N1_N8 free
 fv2A30_N1_N8 free
 fv2A3_N2_N8 free
 fv2A5_N2_N8 free
 fv2A6_N2_N8 free
 fv2A12_N2_N8 free
 fv2A13_N2_N8 free
 fv2A14_N2_N8 free
 fv2A16_N2_N8 free
 fv2A17_N2_N8 free
 fv2A25_N2_N8 free
 fv2A26_N2_N8 free
 fv2A27_N2_N8 free
 fv2A28_N2_N8 free
 fv2A29_N2_N8 free
 fv2A30_N2_N8 free
 fv2A3_N3_N8 free
 fv2A5_N3_N8 free
 fv2A6_N3_N8 free
 fv2A12_N3_N8 free
 fv2A13_N3_N8 free
 fv2A14_N3_N8 free
 fv2A16_N3_N8 free
 fv2A17_N3_N8 free
 fv2A25_N3_N8 free
 fv2A26_N3_N8 free
 fv2A27_N3_N8 free
 fv2A28_N3_N8 free
 fv2A29_N3_N8 free
 fv2A30_N3_N8 free
 fv2A3_N4_N8 free
 fv2A5_N4_N8 free
 fv2A6_N4_N8 free
 fv2A12_N4_N8 free
 fv2A13_N4_N8 free
 fv2A14_N4_N8 free
 fv2A16_N4_N8 free
 fv2A17_N4_N8 free
 fv2A25_N4_N8 free
 fv2A26_N4_N8 free
 fv2A27_N4_N8 free
 fv2A28_N4_N8 free
 fv2A29_N4_N8 free
 fv2A30_N4_N8 free
 fv2A3_N5_N8 free
 fv2A5_N5_N8 free
 fv2A6_N5_N8 free
 fv2A12_N5_N8 free
 fv2A13_N5_N8 free
 fv2A14_N5_N8 free
 fv2A16_N5_N8 free
 fv2A17_N5_N8 free
 fv2A25_N5_N8 free
 fv2A26_N5_N8 free
 fv2A27_N5_N8 free
 fv2A28_N5_N8 free
 fv2A29_N5_N8 free
 fv2A30_N5_N8 free
 fv2A3_N6_N8 free
 fv2A5_N6_N8 free
 fv2A6_N6_N8 free
 fv2A12_N6_N8 free
 fv2A13_N6_N8 free
 fv2A14_N6_N8 free
 fv2A16_N6_N8 free
 fv2A17_N6_N8 free
 fv2A25_N6_N8 free
 fv2A26_N6_N8 free
 fv2A27_N6_N8 free
 fv2A28_N6_N8 free
 fv2A29_N6_N8 free
 fv2A30_N6_N8 free
 fv2A3_N7_N8 free
 fv2A5_N7_N8 free
 fv2A6_N7_N8 free
 fv2A12_N7_N8 free
 fv2A13_N7_N8 free
 fv2A14_N7_N8 free
 fv2A16_N7_N8 free
 fv2A17_N7_N8 free
 fv2A25_N7_N8 free
 fv2A26_N7_N8 free
 fv2A27_N7_N8 free
 fv2A28_N7_N8 free
 fv2A29_N7_N8 free
 fv2A30_N7_N8 free
 fv2A3_J1_N8 free
 fv2A5_J1_N8 free
 fv2A6_J1_N8 free
 fv2A12_J1_N8 free
 fv2A13_J1_N8 free
 fv2A14_J1_N8 free
 fv2A16_J1_N8 free
 fv2A17_J1_N8 free
 fv2A25_J1_N8 free
 fv2A26_J1_N8 free
 fv2A27_J1_N8 free
 fv2A28_J1_N8 free
 fv2A29_J1_N8 free
 fv2A30_J1_N8 free
 fv2A3_J2_N8 free
 fv2A5_J2_N8 free
 fv2A6_J2_N8 free
 fv2A12_J2_N8 free
 fv2A13_J2_N8 free
 fv2A14_J2_N8 free
 fv2A16_J2_N8 free
 fv2A17_J2_N8 free
 fv2A25_J2_N8 free
 fv2A26_J2_N8 free
 fv2A27_J2_N8 free
 fv2A28_J2_N8 free
 fv2A29_J2_N8 free
 fv2A30_J2_N8 free
 fv2A3_J3_N8 free
 fv2A5_J3_N8 free
 fv2A6_J3_N8 free
 fv2A12_J3_N8 free
 fv2A13_J3_N8 free
 fv2A14_J3_N8 free
 fv2A16_J3_N8 free
 fv2A17_J3_N8 free
 fv2A25_J3_N8 free
 fv2A26_J3_N8 free
 fv2A27_J3_N8 free
 fv2A28_J3_N8 free
 fv2A29_J3_N8 free
 fv2A30_J3_N8 free
End
